\ Generated by MPModelProtoExporter
\   Name             : SCIP
\   Format           : Free
\   Constraints      : 30
\   Variables        : 210
\     Binary         : 210
\     Integer        : 0
\     Continuous     : 0
Minimize
 Obj: +90 x[0,0] +99 x[1,0] +17 x[2,0] +22 x[3,0] +75 x[4,0] +94 x[5,0] +52 x[6,0] +17 x[7,0] +64 x[8,0] +39 x[9,0] +27 x[10,0] +75 x[11,0] +14 x[12,0] +36 x[13,0] +97 x[14,0] +2 x[15,0] +31 x[16,0] +35 x[17,0] +33 x[18,0] +33 x[19,0] +11 x[0,1] +97 x[1,1] +84 x[2,1] +32 x[3,1] +45 x[4,1] +90 x[5,1] +16 x[6,1] +81 x[7,1] +87 x[8,1] +32 x[9,1] +78 x[10,1] +99 x[11,1] +49 x[12,1] +83 x[13,1] +66 x[14,1] +63 x[15,1] +80 x[16,1] +82 x[17,1] +97 x[18,1] +42 x[19,1] +98 x[0,2] +74 x[1,2] +41 x[2,2] +34 x[3,2] +29 x[4,2] +41 x[5,2] +32 x[6,2] +33 x[7,2] +69 x[8,2] +69 x[9,2] +64 x[10,2] +20 x[11,2] +60 x[12,2] +12 x[13,2] +84 x[14,2] +58 x[15,2] +13 x[16,2] +41 x[17,2] +62 x[18,2] +47 x[19,2] +72 x[0,3] +65 x[1,3] +62 x[2,3] +90 x[3,3] +97 x[4,3] +42 x[5,3] +82 x[6,3] +3 x[7,3] +74 x[8,3] +22 x[9,3] +76 x[10,3] +60 x[11,3] +58 x[12,3] +10 x[13,3] +2 x[14,3] +95 x[15,3] +19 x[16,3] +65 x[17,3] +98 x[18,3] +52 x[19,3] +73 x[0,4] +81 x[1,4] +65 x[2,4] +99 x[3,4] +88 x[4,4] +42 x[5,4] +46 x[6,4] +12 x[7,4] +35 x[8,4] +70 x[9,4] +85 x[10,4] +16 x[11,4] +30 x[12,4] +7 x[13,4] +90 x[14,4] +39 x[15,4] +99 x[16,4] +54 x[17,4] +91 x[18,4] +37 x[19,4] +52 x[0,5] +70 x[1,5] +77 x[2,5] +69 x[3,5] +18 x[4,5] +84 x[5,5] +45 x[6,5] +16 x[7,5] +4 x[8,5] +49 x[9,5] +40 x[10,5] +37 x[11,5] +11 x[12,5] +86 x[13,5] +50 x[14,5] +73 x[15,5] +39 x[16,5] +52 x[17,5] +1 x[18,5] +51 x[19,5] +55 x[0,6] +6 x[1,6] +71 x[2,6] +4 x[3,6] +6 x[4,6] +84 x[5,6] +73 x[6,6] +28 x[7,6] +44 x[8,6] +51 x[9,6] +41 x[10,6] +23 x[11,6] +94 x[12,6] +23 x[13,6] +2 x[14,6] +15 x[15,6] +22 x[16,6] +21 x[17,6] +8 x[18,6] +18 x[19,6] +36 x[0,7] +86 x[1,7] +5 x[2,7] +5 x[3,7] +1 x[4,7] +11 x[5,7] +38 x[6,7] +60 x[7,7] +8 x[8,7] +78 x[9,7] +46 x[10,7] +1 x[11,7] +26 x[12,7] +52 x[13,7] +87 x[14,7] +28 x[15,7] +88 x[16,7] +83 x[17,7] +37 x[18,7] +57 x[19,7] +69 x[0,8] +58 x[1,8] +19 x[2,8] +99 x[3,8] +76 x[4,8] +30 x[5,8] +85 x[6,8] +3 x[7,8] +19 x[8,8] +61 x[9,8] +65 x[10,8] +81 x[11,8] +72 x[12,8] +94 x[13,8] +99 x[14,8] +22 x[15,8] +86 x[16,8] +33 x[17,8] +32 x[18,8] +97 x[19,8] +1 x[0,9] +49 x[1,9] +56 x[2,9] +65 x[3,9] +84 x[4,9] +56 x[5,9] +4 x[6,9] +37 x[7,9] +61 x[9,9] +54 x[10,9] +24 x[11,9] +69 x[12,9] +93 x[13,9] +19 x[14,9] +97 x[15,9] +63 x[16,9] +96 x[17,9] +20 x[18,9] +1 x[19,9] +417 y[0] +270 y[1] +1090 y[2] +583 y[3] +294 y[4] +916 y[5] +510 y[6] +357 y[7] +399 y[8] +683 y[9] 
Subject to
 auto_c_000000000: +1 x[0,0] +1 x[0,1] +1 x[0,2] +1 x[0,3] +1 x[0,4] +1 x[0,5] +1 x[0,6] +1 x[0,7] +1 x[0,8] +1 x[0,9]  = 1
 auto_c_000000001: +1 x[1,0] +1 x[1,1] +1 x[1,2] +1 x[1,3] +1 x[1,4] +1 x[1,5] +1 x[1,6] +1 x[1,7] +1 x[1,8] +1 x[1,9]  = 1
 auto_c_000000002: +1 x[2,0] +1 x[2,1] +1 x[2,2] +1 x[2,3] +1 x[2,4] +1 x[2,5] +1 x[2,6] +1 x[2,7] +1 x[2,8] +1 x[2,9]  = 1
 auto_c_000000003: +1 x[3,0] +1 x[3,1] +1 x[3,2] +1 x[3,3] +1 x[3,4] +1 x[3,5] +1 x[3,6] +1 x[3,7] +1 x[3,8] +1 x[3,9]  = 1
 auto_c_000000004: +1 x[4,0] +1 x[4,1] +1 x[4,2] +1 x[4,3] +1 x[4,4] +1 x[4,5] +1 x[4,6] +1 x[4,7] +1 x[4,8] +1 x[4,9]  = 1
 auto_c_000000005: +1 x[5,0] +1 x[5,1] +1 x[5,2] +1 x[5,3] +1 x[5,4] +1 x[5,5] +1 x[5,6] +1 x[5,7] +1 x[5,8] +1 x[5,9]  = 1
 auto_c_000000006: +1 x[6,0] +1 x[6,1] +1 x[6,2] +1 x[6,3] +1 x[6,4] +1 x[6,5] +1 x[6,6] +1 x[6,7] +1 x[6,8] +1 x[6,9]  = 1
 auto_c_000000007: +1 x[7,0] +1 x[7,1] +1 x[7,2] +1 x[7,3] +1 x[7,4] +1 x[7,5] +1 x[7,6] +1 x[7,7] +1 x[7,8] +1 x[7,9]  = 1
 auto_c_000000008: +1 x[8,0] +1 x[8,1] +1 x[8,2] +1 x[8,3] +1 x[8,4] +1 x[8,5] +1 x[8,6] +1 x[8,7] +1 x[8,8] +1 x[8,9]  = 1
 auto_c_000000009: +1 x[9,0] +1 x[9,1] +1 x[9,2] +1 x[9,3] +1 x[9,4] +1 x[9,5] +1 x[9,6] +1 x[9,7] +1 x[9,8] +1 x[9,9]  = 1
 auto_c_000000010: +1 x[10,0] +1 x[10,1] +1 x[10,2] +1 x[10,3] +1 x[10,4] +1 x[10,5] +1 x[10,6] +1 x[10,7] +1 x[10,8] +1 x[10,9]  = 1
 auto_c_000000011: +1 x[11,0] +1 x[11,1] +1 x[11,2] +1 x[11,3] +1 x[11,4] +1 x[11,5] +1 x[11,6] +1 x[11,7] +1 x[11,8] +1 x[11,9]  = 1
 auto_c_000000012: +1 x[12,0] +1 x[12,1] +1 x[12,2] +1 x[12,3] +1 x[12,4] +1 x[12,5] +1 x[12,6] +1 x[12,7] +1 x[12,8] +1 x[12,9]  = 1
 auto_c_000000013: +1 x[13,0] +1 x[13,1] +1 x[13,2] +1 x[13,3] +1 x[13,4] +1 x[13,5] +1 x[13,6] +1 x[13,7] +1 x[13,8] +1 x[13,9]  = 1
 auto_c_000000014: +1 x[14,0] +1 x[14,1] +1 x[14,2] +1 x[14,3] +1 x[14,4] +1 x[14,5] +1 x[14,6] +1 x[14,7] +1 x[14,8] +1 x[14,9]  = 1
 auto_c_000000015: +1 x[15,0] +1 x[15,1] +1 x[15,2] +1 x[15,3] +1 x[15,4] +1 x[15,5] +1 x[15,6] +1 x[15,7] +1 x[15,8] +1 x[15,9]  = 1
 auto_c_000000016: +1 x[16,0] +1 x[16,1] +1 x[16,2] +1 x[16,3] +1 x[16,4] +1 x[16,5] +1 x[16,6] +1 x[16,7] +1 x[16,8] +1 x[16,9]  = 1
 auto_c_000000017: +1 x[17,0] +1 x[17,1] +1 x[17,2] +1 x[17,3] +1 x[17,4] +1 x[17,5] +1 x[17,6] +1 x[17,7] +1 x[17,8] +1 x[17,9]  = 1
 auto_c_000000018: +1 x[18,0] +1 x[18,1] +1 x[18,2] +1 x[18,3] +1 x[18,4] +1 x[18,5] +1 x[18,6] +1 x[18,7] +1 x[18,8] +1 x[18,9]  = 1
 auto_c_000000019: +1 x[19,0] +1 x[19,1] +1 x[19,2] +1 x[19,3] +1 x[19,4] +1 x[19,5] +1 x[19,6] +1 x[19,7] +1 x[19,8] +1 x[19,9]  = 1
 auto_c_000000020: +10 x[0,0] +28 x[1,0] +28 x[2,0] +24 x[3,0] +27 x[4,0] +18 x[5,0] +28 x[6,0] +11 x[7,0] +23 x[8,0] +26 x[9,0] +27 x[10,0] +10 x[11,0] +27 x[12,0] +22 x[13,0] +24 x[14,0] +11 x[15,0] +10 x[16,0] +12 x[17,0] +15 x[18,0] +20 x[19,0] -48 y[0]  <= 0
 auto_c_000000021: +10 x[0,1] +28 x[1,1] +28 x[2,1] +24 x[3,1] +27 x[4,1] +18 x[5,1] +28 x[6,1] +11 x[7,1] +23 x[8,1] +26 x[9,1] +27 x[10,1] +10 x[11,1] +27 x[12,1] +22 x[13,1] +24 x[14,1] +11 x[15,1] +10 x[16,1] +12 x[17,1] +15 x[18,1] +20 x[19,1] -22 y[1]  <= 0
 auto_c_000000022: +10 x[0,2] +28 x[1,2] +28 x[2,2] +24 x[3,2] +27 x[4,2] +18 x[5,2] +28 x[6,2] +11 x[7,2] +23 x[8,2] +26 x[9,2] +27 x[10,2] +10 x[11,2] +27 x[12,2] +22 x[13,2] +24 x[14,2] +11 x[15,2] +10 x[16,2] +12 x[17,2] +15 x[18,2] +20 x[19,2] -80 y[2]  <= 0
 auto_c_000000023: +10 x[0,3] +28 x[1,3] +28 x[2,3] +24 x[3,3] +27 x[4,3] +18 x[5,3] +28 x[6,3] +11 x[7,3] +23 x[8,3] +26 x[9,3] +27 x[10,3] +10 x[11,3] +27 x[12,3] +22 x[13,3] +24 x[14,3] +11 x[15,3] +10 x[16,3] +12 x[17,3] +15 x[18,3] +20 x[19,3] -61 y[3]  <= 0
 auto_c_000000024: +10 x[0,4] +28 x[1,4] +28 x[2,4] +24 x[3,4] +27 x[4,4] +18 x[5,4] +28 x[6,4] +11 x[7,4] +23 x[8,4] +26 x[9,4] +27 x[10,4] +10 x[11,4] +27 x[12,4] +22 x[13,4] +24 x[14,4] +11 x[15,4] +10 x[16,4] +12 x[17,4] +15 x[18,4] +20 x[19,4] -27 y[4]  <= 0
 auto_c_000000025: +10 x[0,5] +28 x[1,5] +28 x[2,5] +24 x[3,5] +27 x[4,5] +18 x[5,5] +28 x[6,5] +11 x[7,5] +23 x[8,5] +26 x[9,5] +27 x[10,5] +10 x[11,5] +27 x[12,5] +22 x[13,5] +24 x[14,5] +11 x[15,5] +10 x[16,5] +12 x[17,5] +15 x[18,5] +20 x[19,5] -75 y[5]  <= 0
 auto_c_000000026: +10 x[0,6] +28 x[1,6] +28 x[2,6] +24 x[3,6] +27 x[4,6] +18 x[5,6] +28 x[6,6] +11 x[7,6] +23 x[8,6] +26 x[9,6] +27 x[10,6] +10 x[11,6] +27 x[12,6] +22 x[13,6] +24 x[14,6] +11 x[15,6] +10 x[16,6] +12 x[17,6] +15 x[18,6] +20 x[19,6] -62 y[6]  <= 0
 auto_c_000000027: +10 x[0,7] +28 x[1,7] +28 x[2,7] +24 x[3,7] +27 x[4,7] +18 x[5,7] +28 x[6,7] +11 x[7,7] +23 x[8,7] +26 x[9,7] +27 x[10,7] +10 x[11,7] +27 x[12,7] +22 x[13,7] +24 x[14,7] +11 x[15,7] +10 x[16,7] +12 x[17,7] +15 x[18,7] +20 x[19,7] -35 y[7]  <= 0
 auto_c_000000028: +10 x[0,8] +28 x[1,8] +28 x[2,8] +24 x[3,8] +27 x[4,8] +18 x[5,8] +28 x[6,8] +11 x[7,8] +23 x[8,8] +26 x[9,8] +27 x[10,8] +10 x[11,8] +27 x[12,8] +22 x[13,8] +24 x[14,8] +11 x[15,8] +10 x[16,8] +12 x[17,8] +15 x[18,8] +20 x[19,8] -42 y[8]  <= 0
 auto_c_000000029: +10 x[0,9] +28 x[1,9] +28 x[2,9] +24 x[3,9] +27 x[4,9] +18 x[5,9] +28 x[6,9] +11 x[7,9] +23 x[8,9] +26 x[9,9] +27 x[10,9] +10 x[11,9] +27 x[12,9] +22 x[13,9] +24 x[14,9] +11 x[15,9] +10 x[16,9] +12 x[17,9] +15 x[18,9] +20 x[19,9] -80 y[9]  <= 0
Bounds
 0 <= x[0,0] <= 1
 0 <= x[1,0] <= 1
 0 <= x[2,0] <= 1
 0 <= x[3,0] <= 1
 0 <= x[4,0] <= 1
 0 <= x[5,0] <= 1
 0 <= x[6,0] <= 1
 0 <= x[7,0] <= 1
 0 <= x[8,0] <= 1
 0 <= x[9,0] <= 1
 0 <= x[10,0] <= 1
 0 <= x[11,0] <= 1
 0 <= x[12,0] <= 1
 0 <= x[13,0] <= 1
 0 <= x[14,0] <= 1
 0 <= x[15,0] <= 1
 0 <= x[16,0] <= 1
 0 <= x[17,0] <= 1
 0 <= x[18,0] <= 1
 0 <= x[19,0] <= 1
 0 <= x[0,1] <= 1
 0 <= x[1,1] <= 1
 0 <= x[2,1] <= 1
 0 <= x[3,1] <= 1
 0 <= x[4,1] <= 1
 0 <= x[5,1] <= 1
 0 <= x[6,1] <= 1
 0 <= x[7,1] <= 1
 0 <= x[8,1] <= 1
 0 <= x[9,1] <= 1
 0 <= x[10,1] <= 1
 0 <= x[11,1] <= 1
 0 <= x[12,1] <= 1
 0 <= x[13,1] <= 1
 0 <= x[14,1] <= 1
 0 <= x[15,1] <= 1
 0 <= x[16,1] <= 1
 0 <= x[17,1] <= 1
 0 <= x[18,1] <= 1
 0 <= x[19,1] <= 1
 0 <= x[0,2] <= 1
 0 <= x[1,2] <= 1
 0 <= x[2,2] <= 1
 0 <= x[3,2] <= 1
 0 <= x[4,2] <= 1
 0 <= x[5,2] <= 1
 0 <= x[6,2] <= 1
 0 <= x[7,2] <= 1
 0 <= x[8,2] <= 1
 0 <= x[9,2] <= 1
 0 <= x[10,2] <= 1
 0 <= x[11,2] <= 1
 0 <= x[12,2] <= 1
 0 <= x[13,2] <= 1
 0 <= x[14,2] <= 1
 0 <= x[15,2] <= 1
 0 <= x[16,2] <= 1
 0 <= x[17,2] <= 1
 0 <= x[18,2] <= 1
 0 <= x[19,2] <= 1
 0 <= x[0,3] <= 1
 0 <= x[1,3] <= 1
 0 <= x[2,3] <= 1
 0 <= x[3,3] <= 1
 0 <= x[4,3] <= 1
 0 <= x[5,3] <= 1
 0 <= x[6,3] <= 1
 0 <= x[7,3] <= 1
 0 <= x[8,3] <= 1
 0 <= x[9,3] <= 1
 0 <= x[10,3] <= 1
 0 <= x[11,3] <= 1
 0 <= x[12,3] <= 1
 0 <= x[13,3] <= 1
 0 <= x[14,3] <= 1
 0 <= x[15,3] <= 1
 0 <= x[16,3] <= 1
 0 <= x[17,3] <= 1
 0 <= x[18,3] <= 1
 0 <= x[19,3] <= 1
 0 <= x[0,4] <= 1
 0 <= x[1,4] <= 1
 0 <= x[2,4] <= 1
 0 <= x[3,4] <= 1
 0 <= x[4,4] <= 1
 0 <= x[5,4] <= 1
 0 <= x[6,4] <= 1
 0 <= x[7,4] <= 1
 0 <= x[8,4] <= 1
 0 <= x[9,4] <= 1
 0 <= x[10,4] <= 1
 0 <= x[11,4] <= 1
 0 <= x[12,4] <= 1
 0 <= x[13,4] <= 1
 0 <= x[14,4] <= 1
 0 <= x[15,4] <= 1
 0 <= x[16,4] <= 1
 0 <= x[17,4] <= 1
 0 <= x[18,4] <= 1
 0 <= x[19,4] <= 1
 0 <= x[0,5] <= 1
 0 <= x[1,5] <= 1
 0 <= x[2,5] <= 1
 0 <= x[3,5] <= 1
 0 <= x[4,5] <= 1
 0 <= x[5,5] <= 1
 0 <= x[6,5] <= 1
 0 <= x[7,5] <= 1
 0 <= x[8,5] <= 1
 0 <= x[9,5] <= 1
 0 <= x[10,5] <= 1
 0 <= x[11,5] <= 1
 0 <= x[12,5] <= 1
 0 <= x[13,5] <= 1
 0 <= x[14,5] <= 1
 0 <= x[15,5] <= 1
 0 <= x[16,5] <= 1
 0 <= x[17,5] <= 1
 0 <= x[18,5] <= 1
 0 <= x[19,5] <= 1
 0 <= x[0,6] <= 1
 0 <= x[1,6] <= 1
 0 <= x[2,6] <= 1
 0 <= x[3,6] <= 1
 0 <= x[4,6] <= 1
 0 <= x[5,6] <= 1
 0 <= x[6,6] <= 1
 0 <= x[7,6] <= 1
 0 <= x[8,6] <= 1
 0 <= x[9,6] <= 1
 0 <= x[10,6] <= 1
 0 <= x[11,6] <= 1
 0 <= x[12,6] <= 1
 0 <= x[13,6] <= 1
 0 <= x[14,6] <= 1
 0 <= x[15,6] <= 1
 0 <= x[16,6] <= 1
 0 <= x[17,6] <= 1
 0 <= x[18,6] <= 1
 0 <= x[19,6] <= 1
 0 <= x[0,7] <= 1
 0 <= x[1,7] <= 1
 0 <= x[2,7] <= 1
 0 <= x[3,7] <= 1
 0 <= x[4,7] <= 1
 0 <= x[5,7] <= 1
 0 <= x[6,7] <= 1
 0 <= x[7,7] <= 1
 0 <= x[8,7] <= 1
 0 <= x[9,7] <= 1
 0 <= x[10,7] <= 1
 0 <= x[11,7] <= 1
 0 <= x[12,7] <= 1
 0 <= x[13,7] <= 1
 0 <= x[14,7] <= 1
 0 <= x[15,7] <= 1
 0 <= x[16,7] <= 1
 0 <= x[17,7] <= 1
 0 <= x[18,7] <= 1
 0 <= x[19,7] <= 1
 0 <= x[0,8] <= 1
 0 <= x[1,8] <= 1
 0 <= x[2,8] <= 1
 0 <= x[3,8] <= 1
 0 <= x[4,8] <= 1
 0 <= x[5,8] <= 1
 0 <= x[6,8] <= 1
 0 <= x[7,8] <= 1
 0 <= x[8,8] <= 1
 0 <= x[9,8] <= 1
 0 <= x[10,8] <= 1
 0 <= x[11,8] <= 1
 0 <= x[12,8] <= 1
 0 <= x[13,8] <= 1
 0 <= x[14,8] <= 1
 0 <= x[15,8] <= 1
 0 <= x[16,8] <= 1
 0 <= x[17,8] <= 1
 0 <= x[18,8] <= 1
 0 <= x[19,8] <= 1
 0 <= x[0,9] <= 1
 0 <= x[1,9] <= 1
 0 <= x[2,9] <= 1
 0 <= x[3,9] <= 1
 0 <= x[4,9] <= 1
 0 <= x[5,9] <= 1
 0 <= x[6,9] <= 1
 0 <= x[7,9] <= 1
 0 <= x[8,9] <= 1
 0 <= x[9,9] <= 1
 0 <= x[10,9] <= 1
 0 <= x[11,9] <= 1
 0 <= x[12,9] <= 1
 0 <= x[13,9] <= 1
 0 <= x[14,9] <= 1
 0 <= x[15,9] <= 1
 0 <= x[16,9] <= 1
 0 <= x[17,9] <= 1
 0 <= x[18,9] <= 1
 0 <= x[19,9] <= 1
 0 <= y[0] <= 1
 0 <= y[1] <= 1
 0 <= y[2] <= 1
 0 <= y[3] <= 1
 0 <= y[4] <= 1
 0 <= y[5] <= 1
 0 <= y[6] <= 1
 0 <= y[7] <= 1
 0 <= y[8] <= 1
 0 <= y[9] <= 1
Binaries
 x[0,0]
 x[1,0]
 x[2,0]
 x[3,0]
 x[4,0]
 x[5,0]
 x[6,0]
 x[7,0]
 x[8,0]
 x[9,0]
 x[10,0]
 x[11,0]
 x[12,0]
 x[13,0]
 x[14,0]
 x[15,0]
 x[16,0]
 x[17,0]
 x[18,0]
 x[19,0]
 x[0,1]
 x[1,1]
 x[2,1]
 x[3,1]
 x[4,1]
 x[5,1]
 x[6,1]
 x[7,1]
 x[8,1]
 x[9,1]
 x[10,1]
 x[11,1]
 x[12,1]
 x[13,1]
 x[14,1]
 x[15,1]
 x[16,1]
 x[17,1]
 x[18,1]
 x[19,1]
 x[0,2]
 x[1,2]
 x[2,2]
 x[3,2]
 x[4,2]
 x[5,2]
 x[6,2]
 x[7,2]
 x[8,2]
 x[9,2]
 x[10,2]
 x[11,2]
 x[12,2]
 x[13,2]
 x[14,2]
 x[15,2]
 x[16,2]
 x[17,2]
 x[18,2]
 x[19,2]
 x[0,3]
 x[1,3]
 x[2,3]
 x[3,3]
 x[4,3]
 x[5,3]
 x[6,3]
 x[7,3]
 x[8,3]
 x[9,3]
 x[10,3]
 x[11,3]
 x[12,3]
 x[13,3]
 x[14,3]
 x[15,3]
 x[16,3]
 x[17,3]
 x[18,3]
 x[19,3]
 x[0,4]
 x[1,4]
 x[2,4]
 x[3,4]
 x[4,4]
 x[5,4]
 x[6,4]
 x[7,4]
 x[8,4]
 x[9,4]
 x[10,4]
 x[11,4]
 x[12,4]
 x[13,4]
 x[14,4]
 x[15,4]
 x[16,4]
 x[17,4]
 x[18,4]
 x[19,4]
 x[0,5]
 x[1,5]
 x[2,5]
 x[3,5]
 x[4,5]
 x[5,5]
 x[6,5]
 x[7,5]
 x[8,5]
 x[9,5]
 x[10,5]
 x[11,5]
 x[12,5]
 x[13,5]
 x[14,5]
 x[15,5]
 x[16,5]
 x[17,5]
 x[18,5]
 x[19,5]
 x[0,6]
 x[1,6]
 x[2,6]
 x[3,6]
 x[4,6]
 x[5,6]
 x[6,6]
 x[7,6]
 x[8,6]
 x[9,6]
 x[10,6]
 x[11,6]
 x[12,6]
 x[13,6]
 x[14,6]
 x[15,6]
 x[16,6]
 x[17,6]
 x[18,6]
 x[19,6]
 x[0,7]
 x[1,7]
 x[2,7]
 x[3,7]
 x[4,7]
 x[5,7]
 x[6,7]
 x[7,7]
 x[8,7]
 x[9,7]
 x[10,7]
 x[11,7]
 x[12,7]
 x[13,7]
 x[14,7]
 x[15,7]
 x[16,7]
 x[17,7]
 x[18,7]
 x[19,7]
 x[0,8]
 x[1,8]
 x[2,8]
 x[3,8]
 x[4,8]
 x[5,8]
 x[6,8]
 x[7,8]
 x[8,8]
 x[9,8]
 x[10,8]
 x[11,8]
 x[12,8]
 x[13,8]
 x[14,8]
 x[15,8]
 x[16,8]
 x[17,8]
 x[18,8]
 x[19,8]
 x[0,9]
 x[1,9]
 x[2,9]
 x[3,9]
 x[4,9]
 x[5,9]
 x[6,9]
 x[7,9]
 x[8,9]
 x[9,9]
 x[10,9]
 x[11,9]
 x[12,9]
 x[13,9]
 x[14,9]
 x[15,9]
 x[16,9]
 x[17,9]
 x[18,9]
 x[19,9]
 y[0]
 y[1]
 y[2]
 y[3]
 y[4]
 y[5]
 y[6]
 y[7]
 y[8]
 y[9]
End
